
Gurobi 10.0.3 (linux64, gurobi_cl) logging started Thu Nov  9 11:48:30 2023

Set parameter Username
Set parameter TimeLimit to value 3600
Set parameter LogFile to value "RCPSP_1176.log"
Set parameter Threads to value 32
Academic license - for non-commercial use only - expires 2024-11-06
Using license file /home/jrivera6/gurobi-licenses/v1003/compute-0-36/gurobi.lic

Gurobi Optimizer version 10.0.3 build v10.0.3rc0 (linux64)
Copyright (c) 2023, Gurobi Optimization, LLC

Read MPS format model from file RCPSP_1176.mps
Reading time = 0.06 seconds
RCPSP_1176: 42947 rows, 17020 columns, 142862 nonzeros

CPU model: Intel(R) Xeon(R) Gold 6130 CPU @ 2.10GHz, instruction set [SSE2|AVX|AVX2|AVX512]
Thread count: 32 physical cores, 32 logical processors, using up to 32 threads

Optimize a model with 42947 rows, 17020 columns and 142862 nonzeros
Model fingerprint: 0x860c0337
Variable types: 92 continuous, 16928 integer (16928 binary)
Coefficient statistics:
  Matrix range     [1e+00, 5e+02]
  Objective range  [1e+00, 1e+00]
  Bounds range     [1e+00, 1e+00]
  RHS range        [1e+00, 5e+02]
Presolve removed 7764 rows and 1901 columns
Presolve time: 4.40s
Presolved: 35183 rows, 15119 columns, 121800 nonzeros
Variable types: 91 continuous, 15028 integer (15028 binary)

Deterministic concurrent LP optimizer: primal and dual simplex (primal and dual model)
Showing first log only...

Root relaxation presolved: 35183 rows, 15119 columns, 121800 nonzeros


Root simplex log...

Iteration    Objective       Primal Inf.    Dual Inf.      Time
       0    7.2619548e+01   6.075634e-02   3.320274e+08      6s
    2349    7.1000000e+01   0.000000e+00   0.000000e+00      6s
Concurrent spin time: 0.80s

Solved with dual simplex (dual model)

Root relaxation: objective 7.100000e+01, 16876 iterations, 2.27 seconds (0.17 work units)
Total elapsed time = 10.33s

    Nodes    |    Current Node    |     Objective Bounds      |     Work
 Expl Unexpl |  Obj  Depth IntInf | Incumbent    BestBd   Gap | It/Node Time

     0     0   71.00000    0   22          -   71.00000      -     -   12s
     0     0   71.00000    0  464          -   71.00000      -     -   28s
     0     0   71.00000    0  470          -   71.00000      -     -   28s
     0     0   71.00000    0   54          -   71.00000      -     -   36s
     0     0   71.00000    0   60          -   71.00000      -     -   37s
     0     0   71.00000    0   25          -   71.00000      -     -   42s
     0     0   71.00000    0   24          -   71.00000      -     -   42s
     0     0   71.00000    0   16          -   71.00000      -     -   46s
     0     0   71.00000    0  214          -   71.00000      -     -   47s
     0     0   71.00000    0   10          -   71.00000      -     -   51s
     0     0   71.00000    0    2          -   71.00000      -     -   57s
     0     0   71.00000    0    4          -   71.00000      -     -   60s
H    0     0                      72.0000000   71.00000  1.39%     -   61s
     0     0   71.00000    0   38   72.00000   71.00000  1.39%     -   63s
     0     0   71.00000    0    6   72.00000   71.00000  1.39%     -   66s
     0     0   71.00000    0   12   72.00000   71.00000  1.39%     -  100s
     0     0   71.00000    0  238   72.00000   71.00000  1.39%     -  108s
     0     0   71.00000    0    9   72.00000   71.00000  1.39%     -  112s
     0     0   71.00000    0    9   72.00000   71.00000  1.39%     -  113s
H    0     0                      71.0000000   71.00000  0.00%     -  114s
     0     0   71.00000    0   13   71.00000   71.00000  0.00%     -  114s

Cutting planes:
  Gomory: 11
  Cover: 86
  Implied bound: 31
  Clique: 298
  MIR: 129
  StrongCG: 4
  RLT: 132
  Relax-and-lift: 71

Explored 1 nodes (54728 simplex iterations) in 114.25 seconds (10.33 work units)
Thread count was 32 (of 32 available processors)

Solution count 2: 71 72 

Optimal solution found (tolerance 1.00e-04)
Best objective 7.100000000000e+01, best bound 7.100000000000e+01, gap 0.0000%

Wrote result file 'RCPSP_1176.sol'

